data;
set K:= K1 K2 K3 K4 K5 K6 K7 ;

set F:= F1 F2 ;

set Q:= Q1 Q2 ;

param T:= 45;
param V: 
	K1  K2  K3  K4  K5  K6  K7  :=
Q1	1   1   1   1   0   0   0   
Q2	0   0   0   0   1   1   1   
; # if resorce k is of type q

param TF:= 
K1 6
K2 6
K3 6
K4 6
K5 12
K6 12
K7 12
; # number of continuous time slots resource can fly

param TR:= 
K1 2
K2 2
K3 2
K4 2
K5 4
K6 4
K7 4
; #  number of continuous time slots resource k needs to rest between flights

param P:= 
K1 36
K2 36
K3 36
K4 36
K5 36
K6 36
K7 36
; #  number of continuous time slots a pilot can be present including rest times for resource k 

param N:= 
K1 4
K2 4
K3 4
K4 4
K5 2
K6 2
K7 2
; # max number of flights resource k can fly in the total time period

param A: 
	K1  K2  K3  K4  K5  K6  K7  :=
1	1   1   1   1   1   1   1   
2	1   1   1   1   1   1   1   
3	1   1   1   1   1   1   1   
4	1   1   1   1   1   1   1   
5	1   1   1   1   1   1   1   
6	1   1   1   1   1   1   1   
7	1   1   1   1   1   1   1   
8	1   1   1   1   1   1   1   
9	1   1   1   1   1   1   1   
10	1   1   1   1   1   1   1   
11	1   1   1   1   1   1   1   
12	1   1   1   1   1   1   1   
13	1   1   1   1   1   1   1   
14	1   1   1   1   1   1   1   
15	1   1   1   1   1   1   1   
16	1   1   1   1   1   1   1   
17	1   1   1   1   1   1   1   
18	1   1   1   1   1   1   1   
19	1   1   1   1   1   1   1   
20	1   1   1   1   1   1   1   
21	1   1   1   1   1   1   1   
22	1   1   1   1   1   1   1   
23	1   1   1   1   1   1   1   
24	1   1   1   1   1   1   1   
25	1   1   1   1   1   1   1   
26	1   1   1   1   1   1   1   
27	1   1   1   1   1   1   1   
28	1   1   1   1   1   1   1   
29	1   1   1   1   1   1   1   
30	1   1   1   1   1   1   1   
31	1   1   1   1   1   1   1   
32	1   1   1   1   1   1   1   
33	1   1   1   1   1   1   1   
34	1   1   1   1   1   1   1   
35	1   1   1   1   1   1   1   
36	1   1   1   1   1   1   1   
37	1   1   1   1   1   1   1   
38	1   1   1   1   1   1   1   
39	1   1   1   1   1   1   1   
40	1   1   1   1   1   1   1   
41	1   1   1   1   1   1   1   
42	1   1   1   1   1   1   1   
43	1   1   1   1   1   1   1   
44	1   1   1   1   1   1   1   
45	1   1   1   1   1   1   1   
; # availability of resorce k in time slot t

param B: 
	F1  F2  :=
Q1	0   0   
Q2	0   0   
; # if front f requires resources of type q

param U: 
	F1  F2  :=
K1	0   0   
K2	0   0   
K3	0   0   
K4	0   0   
K5	2   2   
K6	0   0   
K7	1   1   
; # transit time of resource

param C:= 
K1 900
K2 900
K3 1500
K4 4500
K5 5500
K6 5500
K7 5500
; #  water capacity of resource k

param S:= 
F1 8
F2 8
; # max number of resources that can fly at front f in the same time slot

param D:= 

[*,*,F1 ]:  K1    K2    K3    K4    K5    K6    K7    :=
1           1.94  1.94  1.94  1.54  1.16  1.16  1.16  
2           1.94  1.94  1.94  1.54  1.16  1.16  1.16  
3           1.94  1.94  1.94  1.54  1.16  1.16  1.16  
4           1.94  1.94  1.94  1.54  1.16  1.16  1.16  
5           1.94  1.94  1.94  1.54  1.16  1.16  1.16  
6           1.94  1.94  1.94  1.54  1.16  1.16  1.16  
7           1.94  1.94  1.94  1.54  1.16  1.16  1.16  
8           1.94  1.94  1.94  1.54  1.16  1.16  1.16  
9           1.94  1.94  1.94  1.54  1.16  1.16  1.16  
10          1.94  1.94  1.94  1.54  1.16  1.16  1.16  
11          1.94  1.94  1.94  1.54  1.16  1.16  1.16  
12          1.94  1.94  1.94  1.54  1.16  1.16  1.16  
13          1.94  1.94  1.94  1.54  1.16  1.16  1.16  
14          1.94  1.94  1.94  1.54  1.16  1.16  1.16  
15          1.94  1.94  1.94  1.54  1.16  1.16  1.16  
16          1.94  1.94  1.94  1.54  1.16  1.16  1.16  
17          1.94  1.94  1.94  1.54  1.16  1.16  1.16  
18          1.94  1.94  1.94  1.54  1.16  1.16  1.16  
19          1.94  1.94  1.94  1.54  1.16  1.16  1.16  
20          1.94  1.94  1.94  1.54  1.16  1.16  1.16  
21          1.94  1.94  1.94  1.54  1.16  1.16  1.16  
22          1.94  1.94  1.94  1.54  1.16  1.16  1.16  
23          1.94  1.94  1.94  1.54  1.16  1.16  1.16  
24          1.94  1.94  1.94  1.54  1.16  1.16  1.16  
25          1.84  1.84  1.84  1.47  1.10  1.10  1.10  
26          1.84  1.84  1.84  1.47  1.10  1.10  1.10  
27          1.84  1.84  1.84  1.47  1.10  1.10  1.10  
28          1.84  1.84  1.84  1.47  1.10  1.10  1.10  
29          1.84  1.84  1.84  1.47  1.10  1.10  1.10  
30          1.84  1.84  1.84  1.47  1.10  1.10  1.10  
31          1.84  1.84  1.84  1.47  1.10  1.10  1.10  
32          1.84  1.84  1.84  1.47  1.10  1.10  1.10  
33          1.84  1.84  1.84  1.47  1.10  1.10  1.10  
34          1.94  1.94  1.94  1.54  1.16  1.16  1.16  
35          1.94  1.94  1.94  1.54  1.16  1.16  1.16  
36          1.94  1.94  1.94  1.54  1.16  1.16  1.16  
37          1.94  1.94  1.94  1.54  1.16  1.16  1.16  
38          1.94  1.94  1.94  1.54  1.16  1.16  1.16  
39          1.94  1.94  1.94  1.54  1.16  1.16  1.16  
40          1.94  1.94  1.94  1.54  1.16  1.16  1.16  
41          1.94  1.94  1.94  1.54  1.16  1.16  1.16  
42          1.94  1.94  1.94  1.54  1.16  1.16  1.16  
43          1.94  1.94  1.94  1.54  1.16  1.16  1.16  
44          1.94  1.94  1.94  1.54  1.16  1.16  1.16  
45          1.94  1.94  1.94  1.54  1.16  1.16  1.16  

[*,*,F2 ]:  K1    K2    K3    K4    K5    K6    K7    :=
1           1.62  1.62  1.62  1.29  0.97  0.97  0.97  
2           1.62  1.62  1.62  1.29  0.97  0.97  0.97  
3           1.62  1.62  1.62  1.29  0.97  0.97  0.97  
4           1.62  1.62  1.62  1.29  0.97  0.97  0.97  
5           1.62  1.62  1.62  1.29  0.97  0.97  0.97  
6           1.62  1.62  1.62  1.29  0.97  0.97  0.97  
7           1.62  1.62  1.62  1.29  0.97  0.97  0.97  
8           1.62  1.62  1.62  1.29  0.97  0.97  0.97  
9           1.62  1.62  1.62  1.29  0.97  0.97  0.97  
10          1.62  1.62  1.62  1.29  0.97  0.97  0.97  
11          1.62  1.62  1.62  1.29  0.97  0.97  0.97  
12          1.62  1.62  1.62  1.29  0.97  0.97  0.97  
13          1.62  1.62  1.62  1.29  0.97  0.97  0.97  
14          1.62  1.62  1.62  1.29  0.97  0.97  0.97  
15          1.62  1.62  1.62  1.29  0.97  0.97  0.97  
16          1.62  1.62  1.62  1.29  0.97  0.97  0.97  
17          1.62  1.62  1.62  1.29  0.97  0.97  0.97  
18          1.62  1.62  1.62  1.29  0.97  0.97  0.97  
19          1.62  1.62  1.62  1.29  0.97  0.97  0.97  
20          1.62  1.62  1.62  1.29  0.97  0.97  0.97  
21          1.62  1.62  1.62  1.29  0.97  0.97  0.97  
22          1.62  1.62  1.62  1.29  0.97  0.97  0.97  
23          1.62  1.62  1.62  1.29  0.97  0.97  0.97  
24          1.62  1.62  1.62  1.29  0.97  0.97  0.97  
25          1.54  1.54  1.54  1.23  0.92  0.92  0.92  
26          1.54  1.54  1.54  1.23  0.92  0.92  0.92  
27          1.54  1.54  1.54  1.23  0.92  0.92  0.92  
28          1.54  1.54  1.54  1.23  0.92  0.92  0.92  
29          1.54  1.54  1.54  1.23  0.92  0.92  0.92  
30          1.54  1.54  1.54  1.23  0.92  0.92  0.92  
31          1.54  1.54  1.54  1.23  0.92  0.92  0.92  
32          1.54  1.54  1.54  1.23  0.92  0.92  0.92  
33          1.54  1.54  1.54  1.23  0.92  0.92  0.92  
34          1.62  1.62  1.62  1.29  0.97  0.97  0.97  
35          1.62  1.62  1.62  1.29  0.97  0.97  0.97  
36          1.62  1.62  1.62  1.29  0.97  0.97  0.97  
37          1.62  1.62  1.62  1.29  0.97  0.97  0.97  
38          1.62  1.62  1.62  1.29  0.97  0.97  0.97  
39          1.62  1.62  1.62  1.29  0.97  0.97  0.97  
40          1.62  1.62  1.62  1.29  0.97  0.97  0.97  
41          1.62  1.62  1.62  1.29  0.97  0.97  0.97  
42          1.62  1.62  1.62  1.29  0.97  0.97  0.97  
43          1.62  1.62  1.62  1.29  0.97  0.97  0.97  
44          1.62  1.62  1.62  1.29  0.97  0.97  0.97  
45          1.62  1.62  1.62  1.29  0.97  0.97  0.97  
; # downloads resource k can do at front f in time t if intermediate time slot

param E:= 

[*,*,F1 ]:  K1    K2    K3    K4    K5    K6    K7    :=
1           0.37  0.54  0.31  0.57  0.16  0.49  0.03  
2           0.37  0.54  0.31  0.57  0.16  0.49  0.03  
3           0.37  0.54  0.31  0.57  0.16  0.49  0.03  
4           0.37  0.54  0.31  0.57  0.16  0.49  0.03  
5           0.37  0.54  0.31  0.57  0.16  0.49  0.03  
6           0.37  0.54  0.31  0.57  0.16  0.49  0.03  
7           0.37  0.54  0.31  0.57  0.16  0.49  0.03  
8           0.37  0.54  0.31  0.57  0.16  0.49  0.03  
9           0.37  0.54  0.31  0.57  0.16  0.49  0.03  
10          0.37  0.54  0.31  0.57  0.16  0.49  0.03  
11          0.37  0.54  0.31  0.57  0.16  0.49  0.03  
12          0.37  0.54  0.31  0.57  0.16  0.49  0.03  
13          0.37  0.54  0.31  0.57  0.16  0.49  0.03  
14          0.37  0.54  0.31  0.57  0.16  0.49  0.03  
15          0.37  0.54  0.31  0.57  0.16  0.49  0.03  
16          0.37  0.54  0.31  0.57  0.16  0.49  0.03  
17          0.37  0.54  0.31  0.57  0.16  0.49  0.03  
18          0.37  0.54  0.31  0.57  0.16  0.49  0.03  
19          0.37  0.54  0.31  0.57  0.16  0.49  0.03  
20          0.37  0.54  0.31  0.57  0.16  0.49  0.03  
21          0.37  0.54  0.31  0.57  0.16  0.49  0.03  
22          0.37  0.54  0.31  0.57  0.16  0.49  0.03  
23          0.37  0.54  0.31  0.57  0.16  0.49  0.03  
24          0.37  0.54  0.31  0.57  0.16  0.49  0.03  
25          0.35  0.52  0.29  0.54  0.15  0.46  0.03  
26          0.35  0.52  0.29  0.54  0.15  0.46  0.03  
27          0.35  0.52  0.29  0.54  0.15  0.46  0.03  
28          0.35  0.52  0.29  0.54  0.15  0.46  0.03  
29          0.35  0.52  0.29  0.54  0.15  0.46  0.03  
30          0.35  0.52  0.29  0.54  0.15  0.46  0.03  
31          0.35  0.52  0.29  0.54  0.15  0.46  0.03  
32          0.35  0.52  0.29  0.54  0.15  0.46  0.03  
33          0.35  0.52  0.29  0.54  0.15  0.46  0.03  
34          0.37  0.54  0.31  0.57  0.16  0.49  0.03  
35          0.37  0.54  0.31  0.57  0.16  0.49  0.03  
36          0.37  0.54  0.31  0.57  0.16  0.49  0.03  
37          0.37  0.54  0.31  0.57  0.16  0.49  0.03  
38          0.37  0.54  0.31  0.57  0.16  0.49  0.03  
39          0.37  0.54  0.31  0.57  0.16  0.49  0.03  
40          0.37  0.54  0.31  0.57  0.16  0.49  0.03  
41          0.37  0.54  0.31  0.57  0.16  0.49  0.03  
42          0.37  0.54  0.31  0.57  0.16  0.49  0.03  
43          0.37  0.54  0.31  0.57  0.16  0.49  0.03  
44          0.37  0.54  0.31  0.57  0.16  0.49  0.03  
45          0.37  0.54  0.31  0.57  0.16  0.49  0.03  

[*,*,F2 ]:  K1    K2    K3    K4    K5    K6    K7    :=
1           0.36  0.45  0.19  0.41  0.20  0.36  0.09  
2           0.36  0.45  0.19  0.41  0.20  0.36  0.09  
3           0.36  0.45  0.19  0.41  0.20  0.36  0.09  
4           0.36  0.45  0.19  0.41  0.20  0.36  0.09  
5           0.36  0.45  0.19  0.41  0.20  0.36  0.09  
6           0.36  0.45  0.19  0.41  0.20  0.36  0.09  
7           0.36  0.45  0.19  0.41  0.20  0.36  0.09  
8           0.36  0.45  0.19  0.41  0.20  0.36  0.09  
9           0.36  0.45  0.19  0.41  0.20  0.36  0.09  
10          0.36  0.45  0.19  0.41  0.20  0.36  0.09  
11          0.36  0.45  0.19  0.41  0.20  0.36  0.09  
12          0.36  0.45  0.19  0.41  0.20  0.36  0.09  
13          0.36  0.45  0.19  0.41  0.20  0.36  0.09  
14          0.36  0.45  0.19  0.41  0.20  0.36  0.09  
15          0.36  0.45  0.19  0.41  0.20  0.36  0.09  
16          0.36  0.45  0.19  0.41  0.20  0.36  0.09  
17          0.36  0.45  0.19  0.41  0.20  0.36  0.09  
18          0.36  0.45  0.19  0.41  0.20  0.36  0.09  
19          0.36  0.45  0.19  0.41  0.20  0.36  0.09  
20          0.36  0.45  0.19  0.41  0.20  0.36  0.09  
21          0.36  0.45  0.19  0.41  0.20  0.36  0.09  
22          0.36  0.45  0.19  0.41  0.20  0.36  0.09  
23          0.36  0.45  0.19  0.41  0.20  0.36  0.09  
24          0.36  0.45  0.19  0.41  0.20  0.36  0.09  
25          0.34  0.43  0.18  0.39  0.19  0.34  0.08  
26          0.34  0.43  0.18  0.39  0.19  0.34  0.08  
27          0.34  0.43  0.18  0.39  0.19  0.34  0.08  
28          0.34  0.43  0.18  0.39  0.19  0.34  0.08  
29          0.34  0.43  0.18  0.39  0.19  0.34  0.08  
30          0.34  0.43  0.18  0.39  0.19  0.34  0.08  
31          0.34  0.43  0.18  0.39  0.19  0.34  0.08  
32          0.34  0.43  0.18  0.39  0.19  0.34  0.08  
33          0.34  0.43  0.18  0.39  0.19  0.34  0.08  
34          0.36  0.45  0.19  0.41  0.20  0.36  0.09  
35          0.36  0.45  0.19  0.41  0.20  0.36  0.09  
36          0.36  0.45  0.19  0.41  0.20  0.36  0.09  
37          0.36  0.45  0.19  0.41  0.20  0.36  0.09  
38          0.36  0.45  0.19  0.41  0.20  0.36  0.09  
39          0.36  0.45  0.19  0.41  0.20  0.36  0.09  
40          0.36  0.45  0.19  0.41  0.20  0.36  0.09  
41          0.36  0.45  0.19  0.41  0.20  0.36  0.09  
42          0.36  0.45  0.19  0.41  0.20  0.36  0.09  
43          0.36  0.45  0.19  0.41  0.20  0.36  0.09  
44          0.36  0.45  0.19  0.41  0.20  0.36  0.09  
45          0.36  0.45  0.19  0.41  0.20  0.36  0.09  
; # downloads resource k can do at front f in time t if starting or ending flight

param W: 
	F1        F2        :=
1	383.73    206.62    
2	1534.92   826.49    
3	1534.92   826.49    
4	1534.92   826.49    
5	1534.92   826.49    
6	1534.92   826.49    
7	1534.92   826.49    
8	1534.92   826.49    
9	1534.92   826.49    
10	1534.92   826.49    
11	1534.92   826.49    
12	1534.92   826.49    
13	1534.92   826.49    
14	1534.92   826.49    
15	1534.92   826.49    
16	1534.92   826.49    
17	1534.92   826.49    
18	1534.92   826.49    
19	682.18    367.33    
20	682.18    367.33    
21	682.18    367.33    
22	682.18    367.33    
23	682.18    367.33    
24	682.18    367.33    
25	682.18    367.33    
26	682.18    367.33    
27	682.18    367.33    
28	682.18    367.33    
29	682.18    367.33    
30	682.18    367.33    
31	682.18    367.33    
32	682.18    367.33    
33	682.18    367.33    
34	682.18    367.33    
35	682.18    367.33    
36	682.18    367.33    
37	682.18    367.33    
38	682.18    367.33    
39	682.18    367.33    
40	682.18    367.33    
41	682.18    367.33    
42	682.18    367.33    
43	682.18    367.33    
44	682.18    367.33    
45	170.55    91.83     
; # water needed at front f in time slot t

param M := 100000000; 

param a1:= 10000000;

param a2:= 100;

param a3:= 0.0001;
